NAME          ClpDefau
ROWS
 N  OBJROW
 L  R_296_0
 L  R_296_1
 L  R_296_2
 L  R_296_3
 L  R_296_4
 L  R_296_5
 L  R_296_6
 L  R_296_7
 L  R_296_8
 L  R_296_9
 L  R_296_10
 L  R_296_11
 L  R_296_12
 L  R_296_13
 L  R_296_14
 L  R_296_15
COLUMNS
    x_0       OBJROW     -1.           R_296_1   57.         
    x_0       R_296_2   5.             R_296_4   41.         
    x_0       R_296_6   68.            R_296_7   23.         
    x_0       R_296_8   4.             R_296_9   23.         
    x_0       R_296_10  66.            R_296_11  66.         
    x_0       R_296_12  24.            R_296_14  54.         
    x_0       R_296_15  98.         
    x_1       OBJROW     -2.           R_296_0   76.         
    x_1       R_296_1   58.            R_296_2   97.         
    x_1       R_296_3   95.            R_296_4   68.         
    x_1       R_296_5   36.            R_296_7   46.         
    x_1       R_296_8   59.            R_296_10  73.         
    x_1       R_296_11  72.            R_296_12  63.         
    x_1       R_296_13  42.         
    x_2       OBJROW     -2.           R_296_1   99.         
    x_2       R_296_3   91.            R_296_5   65.         
    x_2       R_296_6   76.            R_296_7   94.         
    x_2       R_296_8   66.            R_296_9   88.         
    x_2       R_296_10  10.            R_296_11  44.         
    x_2       R_296_12  25.            R_296_14  74.         
    x_2       R_296_15  35.         
    x_3       OBJROW     -6.           R_296_0   88.         
    x_3       R_296_2   67.            R_296_3   35.         
    x_3       R_296_4   27.            R_296_6   92.         
    x_3       R_296_7   8.             R_296_8   23.         
    x_3       R_296_9   4.             R_296_10  9.          
    x_3       R_296_11  94.            R_296_13  17.         
    x_3       R_296_15  24.         
    x_4       OBJROW     -3.           R_296_0   1.          
    x_4       R_296_1   6.             R_296_2   32.         
    x_4       R_296_3   5.             R_296_4   79.         
    x_4       R_296_5   96.            R_296_6   44.         
    x_4       R_296_7   40.            R_296_8   99.         
    x_4       R_296_9   6.             R_296_11  80.         
    x_4       R_296_12  61.            R_296_14  88.         
    x_4       R_296_15  14.         
    x_5       OBJROW     -5.           R_296_0   17.         
    x_5       R_296_1   100.           R_296_2   66.         
    x_5       R_296_3   44.            R_296_4   78.         
    x_5       R_296_6   90.            R_296_7   18.         
    x_5       R_296_8   33.            R_296_9   21.         
    x_5       R_296_10  59.            R_296_11  66.         
    x_5       R_296_13  5.             R_296_15  57.         
    x_6       OBJROW     -5.           R_296_0   11.         
    x_6       R_296_1   80.            R_296_2   80.         
    x_6       R_296_3   33.            R_296_4   36.         
    x_6       R_296_5   1.             R_296_6   50.         
    x_6       R_296_7   15.            R_296_8   12.         
    x_6       R_296_9   13.            R_296_10  97.         
    x_6       R_296_11  28.            R_296_12  86.         
    x_6       R_296_13  40.            R_296_14  49.         
    x_6       R_296_15  98.         
    x_7       OBJROW     -10.          R_296_1   56.         
    x_7       R_296_2   3.             R_296_3   7.          
    x_7       R_296_6   13.            R_296_7   62.         
    x_7       R_296_8   67.            R_296_10  47.         
    x_7       R_296_11  48.            R_296_12  88.         
    x_7       R_296_13  14.            R_296_14  100.        
    x_7       R_296_15  3.          
    x_8       OBJROW     -4.           R_296_1   82.         
    x_8       R_296_2   27.            R_296_4   1.          
    x_8       R_296_5   48.            R_296_6   93.         
    x_8       R_296_7   97.            R_296_8   15.         
    x_8       R_296_9   51.            R_296_10  18.         
    x_8       R_296_11  51.            R_296_13  16.         
    x_8       R_296_14  43.            R_296_15  28.         
    x_9       OBJROW     -10.          R_296_0   4.          
    x_9       R_296_1   61.            R_296_2   93.         
    x_9       R_296_3   38.            R_296_4   59.         
    x_9       R_296_5   48.            R_296_6   68.         
    x_9       R_296_8   94.            R_296_12  30.         
    x_9       R_296_13  77.            R_296_14  55.         
    x_9       R_296_15  90.         
    x_10      OBJROW     -1.           R_296_1   74.         
    x_10      R_296_2   46.            R_296_3   70.         
    x_10      R_296_4   54.            R_296_6   88.         
    x_10      R_296_8   17.            R_296_10  91.         
    x_10      R_296_11  88.            R_296_12  23.         
    x_10      R_296_13  15.            R_296_14  97.         
    x_10      R_296_15  43.         
    x_11      OBJROW     -10.          R_296_0   92.         
    x_11      R_296_1   22.            R_296_3   91.         
    x_11      R_296_4   46.            R_296_5   74.         
    x_11      R_296_6   60.            R_296_7   4.          
    x_11      R_296_9   95.            R_296_10  66.         
    x_11      R_296_11  36.            R_296_12  91.         
    x_11      R_296_13  53.            R_296_14  61.         
    x_11      R_296_15  71.         
    x_12      OBJROW     -3.           R_296_0   96.         
    x_12      R_296_2   93.            R_296_3   80.         
    x_12      R_296_4   86.            R_296_5   82.         
    x_12      R_296_7   68.            R_296_8   60.         
    x_12      R_296_9   13.            R_296_10  28.         
    x_12      R_296_11  78.            R_296_12  28.         
    x_12      R_296_14  72.            R_296_15  26.         
    x_13      OBJROW     -7.           R_296_0   76.         
    x_13      R_296_1   63.            R_296_3   79.         
    x_13      R_296_4   62.            R_296_5   73.         
    x_13      R_296_6   92.            R_296_7   98.         
    x_13      R_296_8   1.             R_296_10  86.         
    x_13      R_296_11  97.            R_296_12  87.         
    x_13      R_296_14  65.            R_296_15  11.         
    x_14      OBJROW     -7.           R_296_0   45.         
    x_14      R_296_1   97.            R_296_4   81.         
    x_14      R_296_5   93.            R_296_6   21.         
    x_14      R_296_7   60.            R_296_8   20.         
    x_14      R_296_9   72.            R_296_10  1.          
    x_14      R_296_11  69.            R_296_13  27.         
    x_14      R_296_15  84.         
    x_15      OBJROW     -9.           R_296_0   89.         
    x_15      R_296_1   39.            R_296_2   41.         
    x_15      R_296_3   83.            R_296_5   83.         
    x_15      R_296_6   12.            R_296_7   27.         
    x_15      R_296_8   68.            R_296_10  65.         
    x_15      R_296_11  40.            R_296_12  59.         
    x_15      R_296_13  67.            R_296_14  15.         
    x_15      R_296_15  49.         
RHS
    RHS       R_296_0   533.           R_296_1   378.        
    RHS       R_296_2   486.           R_296_3   524.        
    RHS       R_296_4   239.           R_296_5   502.        
    RHS       R_296_6   628.           R_296_7   531.        
    RHS       R_296_8   330.           R_296_9   669.        
    RHS       R_296_10  612.           R_296_11  458.        
    RHS       R_296_12  632.           R_296_13  297.        
    RHS       R_296_14  612.           R_296_15  814.        
BOUNDS
 UI BOUND     x_0       10.         
 UI BOUND     x_1       10.         
 UI BOUND     x_2       10.         
 UI BOUND     x_3       10.         
 UI BOUND     x_4       10.         
 UI BOUND     x_5       10.         
 UI BOUND     x_6       10.         
 UI BOUND     x_7       10.         
 UI BOUND     x_8       10.         
 UI BOUND     x_9       10.         
 UI BOUND     x_10      10.         
 UI BOUND     x_11      10.         
 UI BOUND     x_12      10.         
 UI BOUND     x_13      10.         
 UI BOUND     x_14      10.         
 UI BOUND     x_15      10.         
ENDATA
